0	23	6	22	43	21	40	12	28	47
40	0	49	46	32	3	20	18	15	39
16	12	0	10	18	46	13	42	38	25
27	46	39	0	26	48	21	1	10	22
9	8	41	8	0	25	5	3	35	23
31	42	44	7	4	0	7	9	10	16
14	27	5	44	12	17	0	33	19	26
33	50	20	29	7	46	48	0	32	26
35	4	13	28	10	19	29	33	0	41
38	23	41	8	12	6	3	23	5	0
